n_res = 4;
rc = [ 21, 23, 23, 22 ];
n_tasks = 120;
d = [ 10, 2, 5, 8, 9, 4, 4, 2, 9, 6, 5, 10, 8, 1, 4, 1, 2, 6, 6, 7, 4, 1, 7, 1, 6, 2, 3, 8, 9, 7, 5, 10, 2, 4, 6, 1, 6, 6, 6, 2, 6, 6, 7, 6, 9, 5, 8, 5, 2, 6, 6, 1, 1, 1, 2, 4, 1, 9, 9, 10, 3, 10, 7, 4, 4, 6, 7, 1, 8, 4, 8, 2, 5, 8, 10, 8, 9, 3, 4, 7, 10, 4, 2, 5, 4, 5, 5, 5, 9, 6, 10, 5, 6, 5, 9, 1, 7, 2, 7, 2, 9, 10, 1, 1, 6, 2, 6, 1, 1, 3, 10, 4, 6, 4, 10, 9, 2, 1, 10, 4 ];
rr = [| 6, 6, 8, 10, 2, 1, 4, 3, 9, 3, 1, 8, 6, 1, 2, 3, 2, 7, 7, 3, 1, 4, 8, 1, 2, 5, 6, 3, 3, 9, 5, 3, 9, 4, 6, 4, 6, 7, 6, 1, 10, 4, 10, 6, 3, 10, 10, 10, 7, 10, 8, 4, 3, 9, 9, 6, 9, 3, 3, 5, 9, 4, 3, 4, 8, 9, 4, 10, 6, 1, 8, 1, 9, 1, 10, 1, 6, 5, 9, 3, 5, 3, 5, 4, 7, 8, 3, 7, 5, 8, 5, 3, 6, 7, 8, 7, 5, 8, 8, 7, 7, 10, 7, 10, 3, 1, 3, 6, 2, 10, 3, 6, 3, 9, 8, 4, 8, 7, 6, 1
      | 3, 9, 9, 7, 3, 8, 8, 1, 4, 5, 2, 1, 5, 8, 9, 7, 3, 9, 5, 3, 9, 8, 7, 10, 5, 8, 4, 3, 3, 2, 9, 9, 1, 9, 8, 3, 6, 7, 4, 10, 8, 3, 4, 10, 10, 4, 6, 1, 10, 9, 6, 6, 9, 8, 8, 4, 3, 2, 7, 9, 1, 9, 4, 4, 5, 3, 7, 4, 5, 2, 2, 9, 3, 8, 4, 8, 9, 9, 7, 10, 3, 3, 7, 1, 6, 8, 9, 4, 3, 9, 3, 3, 1, 6, 1, 7, 7, 1, 6, 10, 9, 5, 7, 4, 1, 2, 10, 10, 9, 9, 9, 9, 9, 10, 10, 8, 6, 7, 10, 2
      | 5, 2, 1, 7, 6, 2, 6, 4, 9, 4, 9, 8, 10, 2, 7, 8, 6, 9, 6, 5, 3, 9, 10, 5, 10, 1, 1, 6, 3, 6, 2, 9, 7, 10, 9, 4, 5, 1, 9, 4, 1, 5, 3, 2, 4, 9, 7, 2, 8, 4, 7, 2, 2, 2, 9, 3, 2, 8, 3, 8, 1, 10, 3, 1, 3, 7, 4, 10, 3, 7, 1, 10, 5, 5, 5, 7, 9, 6, 1, 10, 8, 9, 1, 3, 10, 5, 8, 3, 10, 2, 10, 3, 2, 10, 4, 4, 10, 9, 6, 6, 7, 9, 3, 3, 6, 9, 10, 2, 6, 1, 2, 7, 9, 1, 8, 9, 1, 1, 2, 2
      | 1, 1, 3, 6, 7, 6, 10, 4, 4, 5, 3, 5, 5, 5, 7, 9, 2, 6, 9, 2, 6, 3, 7, 5, 4, 2, 10, 5, 2, 2, 4, 1, 5, 5, 6, 9, 3, 8, 10, 9, 8, 6, 1, 7, 7, 6, 4, 2, 2, 3, 6, 10, 10, 7, 6, 9, 4, 7, 5, 8, 9, 7, 5, 3, 10, 8, 4, 5, 3, 8, 7, 4, 1, 9, 8, 7, 3, 8, 1, 4, 7, 2, 4, 8, 1, 7, 3, 8, 9, 10, 3, 4, 5, 7, 3, 4, 8, 4, 10, 1, 3, 2, 10, 3, 8, 2, 10, 5, 3, 6, 8, 7, 9, 4, 3, 4, 10, 10, 9, 8 |];
suc = [ { 10, 76, 80 },
       { 7, 12, 13 },
       { 4, 63 },
       { 5, 6, 8 },
       { 34, 97 },
       { 9, 11, 23 },
       { 16, 50, 61 },
       { 41 },
       { 14, 18, 26 },
       { 11, 36 },
       { 51, 66 },
       { 27, 32, 55 },
       { 15, 31, 81 },
       { 21, 33, 67 },
       { 41, 52 },
       { 17, 73 },
       { 19, 23, 62 },
       { 20, 24, 25 },
       { 22, 63, 65 },
       { 37, 103 },
       { 29, 44, 68 },
       { 30, 45, 51 },
       { 45, 82, 94 },
       { 67, 70, 112 },
       { 28, 44, 48 },
       { 35, 39 },
       { 53 },
       { 42 },
       { 46, 55, 82 },
       { 34, 89, 105 },
       { 37, 38, 40 },
       { 49 },
       { 48, 60, 84 },
       { 91, 100 },
       { 45, 64 },
       { 42, 43, 74 },
       { 42, 55, 82 },
       { 60, 98, 99 },
       { 41, 49, 66 },
       { 54, 70 },
       { 54, 98 },
       { 59, 83, 91 },
       { 88, 107, 109 },
       { 51, 59 },
       { 47, 52, 72 },
       { 66, 72 },
       { 78, 84, 100 },
       { 64, 95 },
       { 88, 89, 95 },
       { 56, 58, 63 },
       { 75, 81, 83 },
       { 87 },
       { 60, 71, 111 },
       { 56 },
       { 69, 115 },
       { 57, 74, 86 },
       { 71, 75, 79 },
       { 73, 103 },
       { 65, 77 },
       { 61, 68, 75 },
       { 78, 103 },
       { 72, 77, 86 },
       { 68, 92, 119 },
       { 101 },
       { 79, 93 },
       { 71, 73, 109 },
       { 76, 77, 87 },
       { 80 },
       { 70, 78 },
       { 87, 98 },
       { 83, 113 },
       { 76, 81, 88 },
       { 74, 107 },
       { 89, 102 },
       { 90 },
       { 85, 90, 97 },
       { 85, 94, 97 },
       { 79, 116 },
       { 102 },
       { 85 },
       { 110 },
       { 86, 100, 106 },
       { 84, 92, 105 },
       { 93, 110 },
       { 106, 109 },
       { 95, 96, 101 },
       { 90, 99, 104 },
       { 91, 96 },
       { 92, 96, 120 },
       { 102 },
       { 93, 108 },
       { 94 },
       { 104 },
       { 118 },
       { 111 },
       { 114 },
       { 99, 104, 115 },
       { 113 },
       { 108 },
       { 101, 110, 116 },
       { 111, 118 },
       { 105, 108 },
       { 106 },
       { 114 },
       { 117 },
       { 107 },
       { 115 },
       { 114 },
       { 113 },
       { 112 },
       { 112 },
       { 119, 120 },
       { 116, 117 },
       { 119 },
       { 117 },
       { 120 },
       { 118 },
       {  },
       {  },
       {  } ];
